QBPP_HJ*_30_025_06_5
30 269 3
4 11 38 47 2 33 45 27 9 40 20 10 14 21 24 50 28 26 33 24 45 20 21 48 30 41 12 10 26 48
    0    0    0    0    0    0    0  -42    0    0  -49    0    0    0    0  -34    0    0    0    0    0    0   14   -7   -4  -44    0    0  -28   -9
    0    0    0    0    0   -1    4   15    0    0    0   28  -16    0    0    0  -22    0    0    0    0   30    0    0    0   24    0   -1    0    0
    0    0    0    0    0    0   24    0    0    0   36   29    0    0  -40    0    0    0    0    0    0   24    0   18    0   42    0    0    0    0
    0    0    0    0    0    0    0    0    0    0    0    0   16  -12   10    0    0    0    0    0    0   -4    0    0    0   -7    0    0    0    0
    0    0    0    0    0    0   24    0   15    0    0   34  -34    0    0    0  -39    0    0    0    0    0    0    0    0  -42  -12  -41    0  -28
    0   -1    0    0    0    0  -43    0    0    0    0    0  -46  -28    0    0  -24    0  -36    0    0    0    0    0  -48  -22    0    0    0    0
    0    4   24    0   24  -43    0    0    0    0    0    0    0    0  -36  -14   26   24   44   43    0    0  -37    0    0    0    0    0    0    0
  -42   15    0    0    0    0    0    0    1    0   39    0    0   33    0    0    0    0  -40    0    0    0  -29    0    0    0    0    0    0   32
    0    0    0    0   15    0    0    1    0    0   38    0    0  -27    0    0    0    0   13   29    0  -40    0    5    0    0    0    0    0    0
    0    0    0    0    0    0    0    0    0    0    0    0    0    0   46    0    0    0    0    0    0    0    0  -30    0    0    0    0    0    0
  -49    0   36    0    0    0    0   39   38    0    0    0    0    0   29    0    0   30    0   10   47    0  -42    0    0  -15   23    0    0    0
    0   28   29    0   34    0    0    0    0    0    0    0    0  -22    0    0   14    0    0    0  -34    0    0    0    0    0    0    0    0    0
    0  -16    0   16  -34  -46    0    0    0    0    0    0    0    0    0   28    0    0    0    0    0    0    0    0    0    0    7    0    0    0
    0    0    0  -12    0  -28    0   33  -27    0    0  -22    0    0    0    0    0    0  -43    0    0    0    0   24    0    0  -12    0    0    0
    0    0  -40   10    0    0  -36    0    0   46   29    0    0    0    0    0    0    0    0    0    0   -1    0    0  -11    0    0    0  -43    0
  -34    0    0    0    0    0  -14    0    0    0    0    0   28    0    0    0   28    0   31    0    0  -22    0    0   41    0  -24    0  -44    5
    0  -22    0    0  -39  -24   26    0    0    0    0   14    0    0    0   28    0    0    9    0  -21    0    0    0    0    0    0  -30    0    0
    0    0    0    0    0    0   24    0    0    0   30    0    0    0    0    0    0    0    0  -19    0    0   17    0    0    0    0    0    0    0
    0    0    0    0    0  -36   44  -40   13    0    0    0    0  -43    0   31    9    0    0    0    0    0    0   35   19    0  -26   36    0    0
    0    0    0    0    0    0   43    0   29    0   10    0    0    0    0    0    0  -19    0    0    0    0    0    0    0    0   -7    5    0  -37
    0    0    0    0    0    0    0    0    0    0   47  -34    0    0    0    0  -21    0    0    0    0    0    0  -32    0    0    0    0    0    0
    0   30   24   -4    0    0    0    0  -40    0    0    0    0    0   -1  -22    0    0    0    0    0    0  -19    0    0    0    0    0    0    0
   14    0    0    0    0    0  -37  -29    0    0  -42    0    0    0    0    0    0   17    0    0    0  -19    0    0    0   38    0    0  -32    0
   -7    0   18    0    0    0    0    0    5  -30    0    0    0   24    0    0    0    0   35    0  -32    0    0    0  -38    0    0    0    0    6
   -4    0    0    0    0  -48    0    0    0    0    0    0    0    0  -11   41    0    0   19    0    0    0    0  -38    0   33    0    0    0    0
  -44   24   42   -7  -42  -22    0    0    0    0  -15    0    0    0    0    0    0    0    0    0    0    0   38    0   33    0    0    1    6    0
    0    0    0    0  -12    0    0    0    0    0   23    0    7  -12    0  -24    0    0  -26   -7    0    0    0    0    0    0    0    0    0    0
    0   -1    0    0  -41    0    0    0    0    0    0    0    0    0    0    0  -30    0   36    5    0    0    0    0    0    1    0    0   42    0
  -28    0    0    0    0    0    0    0    0    0    0    0    0    0  -43  -44    0    0    0    0    0    0  -32    0    0    6    0   42    0   49
   -9    0    0    0  -28    0    0   32    0    0    0    0    0    0    0    5    0    0    0  -37    0    0    0    6    0    0    0    0   49    0
